10000   99   10   7   47   79   45   39   80   83   
23   10000   99   19   44   10   14   11   21   92   
28   90   10000   85   69   55   66   24   83   99   
70   49   81   10000   70   25   92   56   22   60   
95   8   14   99   10000   36   80   39   22   92   
15   85   38   96   54   10000   30   26   95   57   
72   21   35   57   22   74   10000   50   16   85   
50   32   51   74   60   87   74   10000   74   17   
13   77   47   28   67   12   46   35   10000   15   
50   52   87   48   77   68   89   90   57   10000   
